&CONTROL
calculation = 'scf',
prefix = 'graphene1',
restart_mode = 'from_scratch',
pseudo_dir = './Pseudo/',
outdir = './tmp/',
/
&SYSTEM
ibrav = 12,
a = 2.343,
b = 2.343,
c = 20,
cosab = -0.50,
nat = 2,
ntyp = 1,
ecutwfc = 100,
nbnd = 8,
/
&ELECTRONS
conv_thr = 1.0d-10,
mixing_beta = 0.5,
/
ATOMIC_SPECIES
C 12.0107 C.pbe-n-kjpaw_psl.1.0.0.UPF

ATOMIC_POSITIONS crystal
C 0.000000000 0.000000000 0.250000000
C 0.333333333 0.666666667 0.250000000

K_POINTS automatic
18 18 1 0 0 0
