&projwfc
 prefix = 'graphene1',
 outdir = './tmp/',
 degauss = 0.01
/
