&CONTROL
calculation = 'bands',
prefix = 'graphene1',
pseudo_dir = './Pseudo/',
outdir = './tmp/',
/
&SYSTEM
ibrav = 12,
a = 2.467,
b = 2.467,
c = 20,
cosab = -0.50,
nat = 2,
ntyp = 1,
ecutwfc = 100,
occupations = 'smearing',
degauss = 0.02,
nbnd = 8,
/
&ELECTRONS
conv_thr = 1.0d-10,
mixing_beta = 0.5,
/
ATOMIC_SPECIES
C 12.0107 C.pbe-n-kjpaw_psl.1.0.0.UPF

ATOMIC_POSITIONS crystal
C 0.000000000 0.000000000 0.250000000
C 0.333333333 0.666666667 0.250000000

K_POINTS crystal_b 
4
0.00000  0.00000 0.00000 50 !G
0.33333  0.33333 0.00000 30 !K
0.50000 -0.00000 0.00000 50 !M
0.00000  0.00000 0.00000 1  !G

