&CONTROL
calculation = 'vc-relax',
prefix = 'graphene',
restart_mode = 'from_scratch',
pseudo_dir = './Pseudo/',
outdir = './tmp/',
etot_conv_thr = 1.0d-5
forc_conv_thr = 1.0d-4
/
&SYSTEM
ibrav = 12,
a = 2.467,
b = 2.467,
c = 20,
cosab = -0.50,
nat = 2,
ntyp = 1,
ecutwfc = 100,
occupations = 'smearing',
degauss = 0.02,
nbnd = 8,
/
&ELECTRONS
conv_thr = 1.0d-9,
mixing_beta = 0.5,
/
&IONS
/
&CELL
cell_dofree = '2Dxy',
/
ATOMIC_SPECIES
C 12.0107 C.pbe-n-kjpaw_psl.1.0.0.UPF

ATOMIC_POSITIONS crystal
C 0.000000000 0.000000000 0.250000000
C 0.333333333 0.666666667 0.250000000

K_POINTS automatic
16 16 1 0 0 0
