&BANDS
prefix = 'graphene1',
outdir = './tmp/',
filband = 'graphene.bands', 
/

