&DOS
prefix = 'graphene1',
outdir = './tmp/',
fildos = 'graphene.dos', 
/
