&control
calculation = 'nscf',
prefix = 'graphene1',
pseudo_dir = './Pseudo/',
outdir = './tmp/',
verbosity = 'high', 
/
&SYSTEM
ibrav = 12,
a = 2.516,
b = 2.516,
c = 20,
cosab = -0.50,
nat = 2,
ntyp = 1,
ecutwfc = 100,
occupations = 'tetrahedra',
nbnd = 8,
nosym = .true.,
/
&ELECTRONS
conv_thr = 1.0d-10,
mixing_beta = 0.5,
/
ATOMIC_SPECIES
C 12.0107 C.pbe-n-kjpaw_psl.1.0.0.UPF

ATOMIC_POSITIONS crystal
C 0.000000000 0.000000000 0.250000000
C 0.333333333 0.666666667 0.250000000

K_POINTS automatic
48 48 1 0 0 0 ! di kali 2 

