&CONTROL
calculation = 'vc-relax',
prefix = 'graphene',
restart_mode = 'from_scratch',
pseudo_dir = './Pseudo/',
outdir = './tmp/',
etot_conv_thr = 1.0d-5
forc_conv_thr = 1.0d-4
/
&SYSTEM
ibrav = 0,
nat=2,
ntyp=1,
ecutwfc = 100,
occupations = 'smearing',
degauss = 0.02,
nbnd = 8,
/
&ELECTRONS
conv_thr = 1.0d-9,
mixing_beta = 0.5,
/
&IONS
/
&CELL
cell_dofree = '2Dxy',
/
ATOMIC_SPECIES
C 12 C.pbe-n-kjpaw_psl.1.0.0.UPF
CELL_PARAMETERS (angstrom)
 2.467000000    0.000000000   0.000000000
-1.233000000    2.136000000   0.000000000
 0.000000000    0.000000000   20.00000000
ATOMIC_POSITIONS (crystal)
C 0.000000000 0.000000000 0.000000000 0 0 0
C 0.666666666 0.333333333 0.000000000 0 0 0
K_POINTS (Automatic)
16 16 1 0 0 0
